p cnf 12 50 
-4 -11 5 0
-8 5 6 0
-9 -6 -7 0
-9 -2 6 0
7 -9 8 0
11 4 3 0
-11 -5 10 0
-2 3 5 0
-5 -10 6 0
-3 5 -6 0
3 10 12 0
-8 3 9 0
-4 1 9 0
3 -2 -10 0
-5 4 6 0
10 3 -9 0
-3 9 7 0
-5 11 9 0
10 -5 -7 0
3 -6 -8 0
-10 2 1 0
11 -6 12 0
2 6 -5 0
7 8 12 0
-3 -11 5 0
-12 -9 11 0
-11 3 -7 0
-2 -6 -7 0
3 -2 -12 0
-5 -6 11 0
11 -10 3 0
-9 6 -12 0
12 -10 -6 0
-5 12 -11 0
3 4 -6 0
8 -7 -5 0
9 -1 6 0
9 -11 5 0
2 4 -10 0
2 5 4 0
-12 -8 -4 0
3 -10 2 0
3 -10 -5 0
8 -10 -5 0
-6 1 -8 0
-7 -6 -10 0
1 -6 5 0
3 6 -4 0
8 3 -2 0
11 12 -10 0
